p td 30 45
0 28
0 16
0 7
0 8
1 16
1 18
2 29
3 16
3 20
3 11
4 20
4 26
4 25
4 29
5 27
5 16
5 20
6 19
7 13
9 24
9 19
9 11
9 29
10 28
10 11
10 18
11 12
12 20
13 20
13 18
13 17
14 23
14 22
15 29
16 26
17 24
17 29
17 18
18 25
19 28
19 21
20 24
23 29
24 27
26 27
